10
1 0 2
2 0 5
2 1 1
3 0 2
3 1 1
3 2 3
4 0 1
4 1 2
4 2 2
4 3 1
5 0 1
5 1 3
5 2 3
5 3 1
5 4 2
6 0 3
6 1 3
6 2 3
6 3 2
6 4 3
6 5 1
7 0 4
7 1 4
7 2 4
7 3 1
7 4 5
7 5 2
7 6 1
8 0 1
8 1 2
8 2 5
8 3 3
8 4 3
8 5 2
8 6 1
8 7 1
9 0 3
9 1 1
9 2 1
9 3 3
9 4 2
9 5 5
9 6 5
9 7 1
9 8 3
